(set-info :smt-lib-version 2.6)
(set-logic QF_UFLRA)
(set-info :source |
MathSat group

|)
(set-info :category "random")
(set-info :status unsat)
(declare-fun x0 () Real)
(declare-fun x1 () Real)
(declare-fun x2 () Real)
(declare-fun x3 () Real)
(declare-fun x4 () Real)
(declare-fun x5 () Real)
(declare-fun x6 () Real)
(declare-fun x7 () Real)
(declare-fun x8 () Real)
(declare-fun x9 () Real)
(declare-fun x10 () Real)
(declare-fun x11 () Real)
(declare-fun x12 () Real)
(declare-fun x13 () Real)
(declare-fun x14 () Real)
(declare-fun x15 () Real)
(declare-fun x16 () Real)
(declare-fun x17 () Real)
(declare-fun x18 () Real)
(declare-fun x19 () Real)
(declare-fun x20 () Real)
(declare-fun x21 () Real)
(declare-fun x22 () Real)
(declare-fun x23 () Real)
(declare-fun x24 () Real)
(declare-fun x25 () Real)
(declare-fun x26 () Real)
(declare-fun x27 () Real)
(declare-fun x28 () Real)
(declare-fun x29 () Real)
(declare-fun f0_1 (Real) Real)
(declare-fun f0_2 (Real Real) Real)
(declare-fun f0_3 (Real Real Real) Real)
(declare-fun f0_4 (Real Real Real Real) Real)
(declare-fun P0 () Bool)
(declare-fun P1 () Bool)
(declare-fun P2 () Bool)
(declare-fun P3 () Bool)
(declare-fun P4 () Bool)
(declare-fun P5 () Bool)
(declare-fun P6 () Bool)
(declare-fun P7 () Bool)
(declare-fun P8 () Bool)
(declare-fun P9 () Bool)
(declare-fun P10 () Bool)
(declare-fun P11 () Bool)
(declare-fun P12 () Bool)
(declare-fun P13 () Bool)
(declare-fun P14 () Bool)
(declare-fun P15 () Bool)
(declare-fun P16 () Bool)
(declare-fun P17 () Bool)
(declare-fun P18 () Bool)
(declare-fun P19 () Bool)
(declare-fun P20 () Bool)
(declare-fun P21 () Bool)
(declare-fun P22 () Bool)
(declare-fun P23 () Bool)
(declare-fun P24 () Bool)
(declare-fun P25 () Bool)
(declare-fun P26 () Bool)
(declare-fun P27 () Bool)
(declare-fun P28 () Bool)
(declare-fun P29 () Bool)
(assert (let ((?v_4 (* 37 x14)) (?v_140 (distinct (- (+ (* 37 x18) (* 36 x25)) (* 4 x24)) 25)) (?v_3 (<= (- (- (* 3 x22) (* 2 x18)) (* 7 x16)) 21)) (?v_19 (* 23 x21))) (let ((?v_50 (< (+ (- ?v_19 (* 38 x20)) (* 40 x27)) 41)) (?v_106 (* 39 x27)) (?v_65 (distinct x9 (f0_2 x1 x22))) (?v_92 (distinct (f0_1 x27) (f0_2 x28 x8))) (?v_139 (= x21 x22)) (?v_63 (distinct x0 (f0_2 x13 x2))) (?v_71 (distinct (f0_1 x21) (f0_1 x2))) (?v_123 (= (f0_2 x27 x17) x18)) (?v_22 (= (f0_2 x20 x15) x5)) (?v_11 (= (f0_1 x8) (f0_2 x26 x13))) (?v_16 (f0_1 x1))) (let ((?v_26 (= x27 ?v_16)) (?v_13 (= (f0_2 x17 x29) (f0_2 x15 x18))) (?v_147 (distinct x13 (f0_1 x17))) (?v_20 (= (f0_2 x16 x21) (f0_2 x20 x26))) (?v_142 (= x0 (f0_2 x21 x6))) (?v_21 (= ?v_16 (f0_1 x4))) (?v_45 (distinct (f0_2 x13 x21) (f0_1 x3))) (?v_8 (= (f0_2 x7 x7) (f0_1 x0))) (?v_7 (f0_1 x22))) (let ((?v_73 (= ?v_7 (f0_2 x11 x1))) (?v_43 (distinct x1 (f0_2 x29 x29))) (?v_17 (f0_1 x23))) (let ((?v_91 (= ?v_17 (f0_2 x25 x8))) (?v_41 (= x27 (f0_2 x3 x8))) (?v_40 (f0_1 x26))) (let ((?v_10 (= ?v_40 (f0_2 x22 x14))) (?v_14 (= (f0_2 x27 x20) ?v_7)) (?v_111 (distinct (f0_1 x9) ?v_40)) (?v_18 (= (f0_2 x5 x8) ?v_17)) (?v_127 (= ?v_17 x8)) (?v_38 (= x6 (f0_2 x3 x26))) (?v_119 (distinct (f0_2 x13 x17) x21)) (?v_23 (= x3 (f0_1 x28))) (?v_2 (= (f0_2 x15 x26) (f0_2 x5 x4))) (?v_74 (distinct (f0_1 x20) x6)) (?v_53 (not P2)) (?v_51 (not P11)) (?v_44 (not ?v_26)) (?v_1 (not ?v_8)) (?v_103 (not P25)) (?v_86 (not P10)) (?v_12 (not P8)) (?v_6 (not ?v_147)) (?v_42 (not ?v_45)) (?v_77 (not P0)) (?v_150 (not P29)) (?v_67 (not ?v_92))) (let ((?v_24 (not ?v_14)) (?v_9 (not ?v_142)) (?v_58 (not ?v_3)) (?v_27 (not ?v_13)) (?v_125 (not ?v_73)) (?v_81 (not P26)) (?v_46 (not ?v_10)) (?v_66 (not ?v_22)) (?v_78 (not P7)) (?v_35 (not ?v_21)) (?v_89 (not P1)) (?v_29 (not P14)) (?v_70 (not ?v_43)) (?v_32 (not ?v_20)) (?v_54 (not ?v_119)) (?v_136 (not P22)) (?v_131 (not ?v_63)) (?v_62 (not ?v_38)) (?v_129 (not ?v_18)) (?v_143 (not P20)) (?v_121 (not ?v_41)) (?v_113 (not P18)) (?v_47 (not P5)) (?v_84 (not ?v_123)) (?v_85 (not P28)) (?v_57 (not P24)) (?v_64 (not ?v_50)) (?v_98 (not P27)) (?v_90 (not P6)) (?v_87 (not ?v_139)) (?v_61 (not P19)) (?v_128 (not ?v_71)) (?v_114 (not ?v_11)) (?v_79 (not ?v_23)) (?v_104 (not P17)) (?v_88 (not P16)) (?v_101 (not ?v_65)) (?v_109 (not P23)) (?v_148 (not ?v_74)) (?v_107 (not P13)) (?v_120 (not P12)) (?v_116 (not ?v_91)) (?v_144 (not P4)) (?v_126 (not ?v_2)) (?v_117 (not P9)) (?v_124 (not P21)) (?v_137 (not P3)) (?v_145 (not ?v_111)) (?v_156 (not ?v_127)) (?v_151 (not ?v_140)) (?v_155 (not P15))) (let ((?v_158 (or ?v_139 ?v_88)) (?v_80 (distinct (+ (* 24 x22) (* 28 x29)) 20)) (?v_153 (<= (+ (* 30 x2) (* 12 x8) (* 2 x4)) 36))) (let ((?v_72 (not ?v_153)) (?v_76 (<= (+ (* 15 x3) (* 10 x17) (* 18 x7)) 23)) (?v_83 (not ?v_80))) (let ((?v_138 (not ?v_76)) (?v_34 (< (- (- (* (- 39) x21) (* 13 x9)) (* 20 x6)) 0))) (let ((?v_33 (not ?v_34)) (?v_0 (distinct (- (+ (* 7 x25) (* 36 x20)) (* 3 x5)) (- 20)))) (let ((?v_99 (not ?v_0)) (?v_5 (<= (+ (- (* (- 12) x26) (* 35 x16)) ?v_4) 26)) (?v_93 (<= (- (- (* (- 22) x21) (* 5 x14)) (* 32 x26)) (- 41))) (?v_39 (< (+ (* 10 x2) ?v_19 (* 4 x11)) (- 10)))) (let ((?v_15 (not ?v_39)) (?v_31 (<= (- (+ (* (- 25) x21) (* 4 x12)) (* 6 x15)) (- 36)))) (let ((?v_60 (not ?v_31)) (?v_75 (<= (- (- (* 15 x16) (* 26 x22)) (* 13 x23)) (- 26)))) (let ((?v_52 (not ?v_75)) (?v_69 (< (- (- (* 17 x22) (* 18 x24)) x22) (- 41))) (?v_82 (< (+ (* (- 24) x11) (* 19 x18) (* 26 x27)) 7)) (?v_37 (< (- (- (* 2 x0) (* 31 x1)) ?v_4) (- 12)))) (let ((?v_141 (not ?v_37)) (?v_30 (= (- (+ (* 17 x23) x27) (* 40 x18)) (- 37)))) (let ((?v_28 (not ?v_30)) (?v_115 (distinct (- (- (* (- 28) x5) (* 34 x5)) (* 4 x15)) (- 33)))) (let ((?v_56 (not ?v_115)) (?v_25 (<= (+ (- (* 10 x16) (* 4 x6)) (* 37 x8)) (- 18)))) (let ((?v_94 (not ?v_25)) (?v_68 (<= (+ (- (* (- 30) x12) (* 2 x3)) (* 3 x20)) (- 37))) (?v_36 (<= (+ (* (- 3) x22) (* 21 x26) (* 23 x14)) (- 34)))) (let ((?v_55 (not ?v_36)) (?v_59 (< (- (+ (* 38 x9) (* 12 x15)) (* 3 x4)) (- 22)))) (let ((?v_49 (not ?v_59)) (?v_48 (<= (+ (- (* (- 8) x9) (* 14 x11)) (* 40 x14)) (- 1)))) (let ((?v_97 (not ?v_48)) (?v_112 (<= (- (- (* 29 x12) (* 21 x8)) (* 22 x12)) (- 5))) (?v_132 (not ?v_68)) (?v_152 (not ?v_69)) (?v_102 (<= (+ (- (* 19 x20) (* 28 x18)) (* 36 x17)) (- 17)))) (let ((?v_135 (not ?v_102)) (?v_122 (< (+ (* (- 6) x7) (* 27 x11) (* 35 x7)) (- 25))) (?v_130 (< (- (- (* (- 4) x25) (* 26 x3)) (* 3 x9)) 38))) (let ((?v_100 (not ?v_130)) (?v_134 (not ?v_82)) (?v_108 (< (- (* 4 x28) (* 5 x27)) (- 21))) (?v_105 (<= (+ (* 32 x21) (* 25 x29) (* 17 x2)) (- 24)))) (let ((?v_95 (not ?v_105)) (?v_96 (not ?v_93)) (?v_133 (not ?v_5)) (?v_146 (distinct (+ (- (* (- 24) x9) ?v_106) ?v_106) (- 26))) (?v_110 (not ?v_108)) (?v_118 (not ?v_112)) (?v_149 (not ?v_122))) (let ((?v_154 (or ?v_138 ?v_96)) (?v_157 (not ?v_146))) (and (and (and (and (and (and (and (and (and (and (and (and (and (and (and (and (and (and (and (and (and (and (and (and (and (and (and (and (and (and (and (and (and (and (and (and (and (and (and (and (and (and (and (and (and (and (and (and (and (and (and (and (and (and (and (and (and (and (and (and (and (and (and (and (and (and (and (and (and (and (and (and (and (and (and (and (and (and (and (and (and (and (and (and (and (and (and (and (and (and (and (and (and (and (and (and (and (and (and (and (and (and (and (and (and (and (and (and (and (and (and (and (and (and (and (and (and (and (and (and (and (and (and (and (and (and (and (and (and (and (and (and (and (and (and (and (and (and (and (and (and (and (and (and (and (and (and (and (and (and (and (and (and (and (and (and (and (and (and (and (and (and (and (and (and (and (and (and (and (and (and (and (and (and (and (and (and (and (and (and (and (and (and (and (and (and (and (and (and (and (and (and (and (and (and (and (and (and (and (and (and (and (and (and (and (and (and (and (and (and (and (and (and (and (and (and (and (and (and (and (and (and (and (and (and (and (and (and (and (and (and (and (and (and (and (and (and (and (and (and (and (and (and (and (and (and (and (and (and (and (and (and (and (and (and (and (and (and (and (and (and (and (and (and (and (and (and (and (and (and (and (and (and (and (and (and (and (and (and (and (and (and (and (and (and (and (and (and (and (and (and (and (and (and (and (and (and (and (and (and (and (and (and (and (and (and (and (and (and (and (and (and (and (and (and (and (and (and (and (and (and (and (and (and (and (and (and (and (and (and (and (and (and (and (and (and (and (and (and (and (and (and (and (and (and (and (and (and (and (and (and (and (and (and (and (and (and (and (and (and (and (and (and (and (and (and (and (and (and (and (and (and (and (and (and (and (and (and (and (and (and (and (and (and (and (and (and (and (and (and (and (and (and (and (and (and (and (and (and (and (and (and (and (and (and (and (and (and (and (and (and (and (and (and (and (and (and (and (and (and (and (and (and (and (and (and (and (and (and (and (and (and (and (and (and (and (and (and (and (and (and (and (and (and (and (and (and (and (and (or (or ?v_33 ?v_53) ?v_0) (or (or ?v_127 ?v_11) ?v_51)) (or (or ?v_44 ?v_2) ?v_1)) (or (or ?v_99 ?v_5) ?v_3)) (or (or ?v_0 ?v_103) ?v_86)) (or (or ?v_12 ?v_93) ?v_6)) (or (or P24 ?v_42) ?v_15)) (or (or ?v_60 ?v_52) ?v_77)) (or (or ?v_1 P23) ?v_2)) (or (or ?v_150 ?v_38) P27)) (or (or ?v_69 ?v_82) P5)) (or (or ?v_67 ?v_24) ?v_9)) (or (or ?v_58 ?v_141) P17)) (or (or ?v_5 ?v_27) ?v_6)) (or (or ?v_28 ?v_0) ?v_1)) (or (or ?v_125 P29) ?v_81)) (or (or ?v_46 ?v_8) P12)) (or (or ?v_9 ?v_10) ?v_41)) (or (or ?v_11 ?v_12) P3)) (or (or P15 ?v_56) ?v_13)) (or (or ?v_14 ?v_23) P27)) (or (or ?v_15 ?v_21) P29)) (or (or ?v_66 ?v_20) ?v_18)) (or (or P0 ?v_2) ?v_18)) (or (or ?v_3 ?v_25) ?v_91)) (or (or P13 ?v_50) ?v_78)) (or (or ?v_80 ?v_20) P13)) (or (or ?v_35 ?v_22) ?v_23)) (or (or ?v_24 P7) P28)) (or (or P15 ?v_94) ?v_89)) (or (or ?v_29 ?v_12) ?v_68)) (or (or ?v_26 ?v_27) ?v_70)) (or (or ?v_28 ?v_28) ?v_23)) (or (or ?v_29 P23) ?v_32)) (or (or ?v_27 ?v_14) P7)) (or (or ?v_30 ?v_54) ?v_31)) (or (or ?v_22 ?v_32) ?v_33)) (or (or ?v_24 ?v_136) P21)) (or (or ?v_34 ?v_35) ?v_131)) (or (or ?v_55 ?v_36) P2)) (or (or ?v_37 P21) P24)) (or (or ?v_62 ?v_129) P14)) (or (or ?v_49 ?v_39) ?v_111)) (or (or P17 ?v_143) ?v_121)) (or (or ?v_42 ?v_113) ?v_47)) (or (or P3 ?v_72) P21)) (or (or ?v_74 ?v_43) ?v_44)) (or (or ?v_14 P24) ?v_38)) (or (or ?v_45 ?v_46) ?v_84)) (or (or ?v_47 ?v_9) ?v_48)) (or (or ?v_97 P10) ?v_22)) (or (or ?v_49 P14) ?v_50)) (or (or ?v_85 ?v_112) ?v_57)) (or (or ?v_46 ?v_51) ?v_64)) (or (or ?v_52 ?v_53) ?v_54)) (or (or P14 ?v_55) P2)) (or (or ?v_56 ?v_57) ?v_12)) (or (or ?v_58 ?v_98) ?v_90)) (or (or ?v_59 ?v_87) ?v_61)) (or (or ?v_60 ?v_30) ?v_61)) (or (or ?v_43 ?v_62) ?v_9)) (or (or ?v_128 ?v_65) P10)) (or (or ?v_63 ?v_43) P6)) (or (or ?v_64 ?v_114) P26)) (or (or ?v_6 ?v_65) P16)) (or (or ?v_25 P1) ?v_79)) (or (or ?v_2 P21) ?v_53)) (or (or ?v_66 ?v_26) P5)) (or (or ?v_76 ?v_67) ?v_66)) (or (or ?v_132 ?v_152) ?v_70)) (or (or ?v_71 ?v_54) ?v_72)) (or (or ?v_73 ?v_55) P11)) (or (or ?v_74 ?v_61) ?v_75)) (or (or ?v_65 ?v_104) P21)) (or (or ?v_76 ?v_135) ?v_35)) (or (or ?v_122 P16) ?v_77)) (or (or ?v_32 P11) ?v_78)) (or (or ?v_41 ?v_100) ?v_79)) (or (or ?v_80 ?v_83) ?v_32)) (or (or ?v_29 ?v_88) P28)) (or (or ?v_64 ?v_29) ?v_81)) (or (or ?v_134 P22) ?v_49)) (or (or ?v_23 ?v_83) P24)) (or (or ?v_11 ?v_49) ?v_56)) (or (or ?v_108 ?v_12) ?v_84)) (or (or ?v_24 ?v_101) P18)) (or (or P6 ?v_63) ?v_85)) (or (or ?v_65 ?v_86) ?v_87)) (or (or ?v_95 ?v_13) P12)) (or (or ?v_140 ?v_59) ?v_1)) (or (or ?v_28 ?v_24) ?v_109)) (or (or ?v_88 ?v_89) ?v_59)) (or (or ?v_89 ?v_138) ?v_148)) (or (or ?v_70 ?v_84) ?v_9)) (or (or ?v_87 ?v_90) ?v_28)) (or (or ?v_85 ?v_91) ?v_42)) (or (or ?v_68 ?v_92) ?v_33)) (or (or P24 ?v_107) ?v_87)) (or (or ?v_71 P5) ?v_96)) (or (or ?v_79 ?v_94) ?v_95)) (or (or P29 ?v_45) ?v_96)) (or (or ?v_73 ?v_133) ?v_45)) (or (or ?v_97 ?v_39) ?v_61)) (or (or ?v_98 ?v_98) ?v_42)) (or (or ?v_5 P7) ?v_99)) (or (or ?v_74 P23) P24)) (or (or P6 ?v_100) ?v_120)) (or (or ?v_58 ?v_101) ?v_88)) (or (or ?v_102 ?v_84) ?v_48)) (or (or ?v_116 ?v_70) ?v_51)) (or (or ?v_27 ?v_84) P3)) (or (or ?v_58 ?v_103) P23)) (or (or ?v_104 ?v_6) ?v_144)) (or (or P0 ?v_90) ?v_65)) (or (or ?v_94 P12) ?v_105)) (or (or P14 ?v_32) ?v_146)) (or (or ?v_75 ?v_107) ?v_18)) (or (or P8 ?v_26) P26)) (or (or ?v_25 ?v_110) ?v_103)) (or (or ?v_109 ?v_65) ?v_30)) (or (or ?v_21 ?v_18) ?v_110)) (or (or ?v_111 ?v_84) ?v_126)) (or (or ?v_108 ?v_112) ?v_38)) (or (or ?v_77 ?v_113) ?v_114)) (or (or ?v_27 ?v_36) P2)) (or (or P12 P6) ?v_81)) (or (or ?v_68 ?v_118) ?v_56)) (or (or ?v_115 ?v_87) ?v_54)) (or (or ?v_89 ?v_20) ?v_117)) (or (or ?v_116 ?v_25) ?v_90)) (or (or ?v_30 ?v_45) ?v_93)) (or (or ?v_13 ?v_100) ?v_117)) (or (or ?v_37 ?v_65) ?v_53)) (or (or ?v_104 P15) ?v_1)) (or (or ?v_124 ?v_49) ?v_118)) (or (or ?v_25 ?v_81) ?v_59)) (or (or ?v_110 P2) ?v_103)) (or (or ?v_77 ?v_42) ?v_107)) (or (or ?v_137 ?v_37) ?v_55)) (or (or P12 P22) ?v_119)) (or (or ?v_120 ?v_43) ?v_54)) (or (or ?v_60 ?v_78) ?v_121)) (or (or ?v_122 ?v_145) P5)) (or (or ?v_103 ?v_78) ?v_35)) (or (or ?v_64 ?v_79) ?v_73)) (or (or ?v_123 ?v_91) ?v_124)) (or (or P8 ?v_125) ?v_94)) (or (or ?v_123 ?v_69) ?v_76)) (or (or ?v_126 ?v_74) ?v_127)) (or (or P14 ?v_69) ?v_61)) (or (or ?v_76 ?v_55) ?v_53)) (or (or ?v_68 ?v_112) ?v_5)) (or (or ?v_97 ?v_36) ?v_113)) (or (or ?v_53 ?v_149) ?v_118)) (or (or ?v_22 ?v_91) ?v_111)) (or (or ?v_128 ?v_122) ?v_86)) (or (or ?v_129 P3) ?v_125)) (or (or ?v_86 ?v_43) ?v_52)) (or (or ?v_91 ?v_130) P0)) (or (or ?v_130 ?v_88) P6)) (or (or ?v_32 ?v_131) ?v_27)) (or (or P6 ?v_107) ?v_124)) (or (or ?v_54 ?v_132) ?v_29)) (or (or ?v_133 ?v_39) ?v_83)) (or (or ?v_0 ?v_117) ?v_39)) (or (or ?v_134 ?v_101) ?v_135)) (or (or P19 ?v_27) ?v_131)) (or (or ?v_136 P16) ?v_118)) (or (or ?v_63 P4) ?v_109)) (or (or ?v_70 ?v_101) P29)) (or (or ?v_79 ?v_137) ?v_138)) (or (or ?v_138 ?v_50) P0)) (or (or ?v_38 ?v_102) ?v_139)) (or (or ?v_135 ?v_140) ?v_69)) (or (or ?v_59 ?v_37) ?v_54)) (or (or ?v_141 ?v_14) ?v_142)) (or ?v_154 ?v_8)) (or (or ?v_90 ?v_48) P5)) (or (or P8 ?v_69) ?v_92)) (or (or ?v_82 ?v_15) ?v_102)) (or (or ?v_143 ?v_9) P24)) (or (or ?v_45 P29) ?v_18)) (or (or ?v_144 ?v_33) ?v_127)) (or (or ?v_43 ?v_138) ?v_140)) (or (or ?v_102 ?v_137) ?v_92)) (or (or ?v_10 ?v_114) ?v_109)) (or (or ?v_62 ?v_1) ?v_84)) (or (or ?v_102 ?v_125) ?v_47)) (or (or ?v_95 ?v_21) ?v_93)) (or (or ?v_74 ?v_124) P26)) (or (or ?v_18 ?v_156) P22)) (or (or P5 ?v_9) ?v_24)) (or (or ?v_117 ?v_70) ?v_72)) (or (or ?v_51 ?v_60) ?v_145)) (or (or ?v_20 ?v_151) ?v_92)) (or (or ?v_104 ?v_111) ?v_93)) (or (or ?v_59 ?v_31) ?v_100)) (or (or ?v_36 ?v_11) ?v_77)) (or (or P8 ?v_0) ?v_115)) (or (or ?v_136 P9) ?v_76)) (or (or P16 ?v_1) ?v_32)) (or (or ?v_61 ?v_65) P13)) (or (or ?v_94 ?v_60) ?v_36)) (or (or ?v_132 ?v_42) ?v_15)) (or (or P25 ?v_34) ?v_126)) (or (or ?v_92 P26) ?v_109)) (or (or ?v_68 ?v_60) ?v_15)) (or (or ?v_22 ?v_124) ?v_2)) (or (or ?v_131 ?v_118) ?v_88)) (or (or P14 ?v_146) ?v_134)) (or (or ?v_142 ?v_13) ?v_147)) (or (or P15 P19) ?v_101)) (or (or ?v_133 ?v_56) P6)) (or (or P5 ?v_10) ?v_126)) (or (or ?v_129 ?v_66) ?v_108)) (or (or ?v_143 ?v_138) ?v_46)) (or (or ?v_33 ?v_148) ?v_109)) (or (or ?v_127 ?v_61) ?v_146)) (or (or P18 ?v_149) ?v_65)) (or (or ?v_9 ?v_12) ?v_145)) (or (or ?v_110 ?v_15) ?v_118)) (or (or ?v_145 ?v_63) P18)) (or (or ?v_133 ?v_150) ?v_83)) (or (or ?v_38 ?v_50) ?v_47)) (or (or ?v_117 ?v_35) ?v_95)) (or (or ?v_56 ?v_115) ?v_108)) (or (or ?v_14 P22) ?v_95)) (or (or ?v_2 P3) ?v_60)) (or (or ?v_27 P16) P14)) (or (or ?v_143 ?v_75) ?v_135)) (or (or ?v_131 ?v_151) ?v_27)) (or (or P24 ?v_114) P25)) (or (or ?v_128 ?v_53) ?v_134)) (or (or P21 ?v_112) ?v_67)) (or (or P2 ?v_109) ?v_104)) (or (or P17 P4) ?v_1)) (or (or P4 ?v_144) ?v_137)) (or (or ?v_24 ?v_115) P12)) (or (or ?v_71 ?v_43) P29)) (or (or ?v_2 ?v_27) ?v_22)) (or (or ?v_146 ?v_142) ?v_135)) (or (or ?v_55 ?v_152) P4)) (or (or ?v_65 ?v_1) ?v_120)) (or (or ?v_35 ?v_94) ?v_83)) (or (or ?v_86 ?v_129) P20)) (or (or P6 ?v_121) ?v_42)) (or (or P9 ?v_129) ?v_75)) (or (or ?v_71 ?v_108) ?v_149)) (or (or ?v_110 ?v_9) ?v_26)) (or (or ?v_29 ?v_31) ?v_20)) (or (or ?v_148 ?v_150) ?v_96)) (or (or P10 P20) ?v_124)) (or (or ?v_112 ?v_62) ?v_57)) (or (or ?v_60 ?v_24) ?v_64)) (or (or ?v_23 ?v_13) ?v_37)) (or (or ?v_90 P14) ?v_42)) (or (or P17 ?v_30) ?v_94)) (or (or ?v_124 ?v_128) ?v_137)) (or (or ?v_141 ?v_96) P29)) (or (or ?v_135 ?v_39) ?v_122)) (or (or ?v_53 ?v_22) ?v_1)) (or (or ?v_101 ?v_46) ?v_41)) (or (or ?v_111 ?v_75) ?v_6)) (or (or ?v_45 ?v_25) ?v_23)) (or (or ?v_136 P24) P21)) (or (or ?v_96 ?v_52) P21)) (or (or ?v_24 P12) ?v_38)) (or (or ?v_118 ?v_38) P24)) (or (or P4 ?v_62) ?v_140)) (or (or ?v_153 ?v_41) P19)) (or (or ?v_87 ?v_118) ?v_147)) (or (or ?v_152 ?v_21) ?v_6)) (or (or ?v_117 ?v_137) ?v_0)) (or (or P7 ?v_80) ?v_143)) (or (or ?v_31 ?v_83) ?v_84)) (or (or P23 ?v_67) ?v_61)) (or (or ?v_37 ?v_98) ?v_143)) (or (or ?v_98 ?v_27) ?v_111)) (or (or ?v_123 P21) ?v_42)) (or (or P3 ?v_23) P12)) (or (or ?v_129 ?v_84) ?v_122)) (or (or ?v_83 P23) P3)) (or (or ?v_22 ?v_37) ?v_49)) (or (or ?v_42 ?v_105) ?v_127)) (or (or P0 ?v_42) P13)) (or (or P27 ?v_151) ?v_55)) (or (or ?v_55 ?v_109) ?v_98)) (or (or P14 ?v_115) ?v_152)) (or (or ?v_105 ?v_47) ?v_25)) (or (or ?v_67 ?v_66) ?v_111)) (or (or P29 P8) ?v_122)) (or (or P8 ?v_97) ?v_130)) (or (or ?v_83 ?v_1) ?v_55)) (or (or ?v_127 ?v_145) ?v_102)) (or (or P4 ?v_63) ?v_44)) (or (or ?v_46 ?v_149) ?v_141)) (or (or ?v_149 ?v_79) ?v_24)) (or (or ?v_109 ?v_122) ?v_145)) (or (or ?v_101 ?v_145) ?v_83)) (or (or ?v_14 ?v_74) ?v_155)) (or (or ?v_24 ?v_79) ?v_153)) (or ?v_154 ?v_117)) (or (or ?v_110 ?v_29) ?v_151)) (or (or ?v_63 ?v_134) ?v_109)) (or (or ?v_65 P21) P25)) (or (or P13 ?v_121) ?v_27)) (or (or ?v_14 ?v_150) ?v_46)) (or (or ?v_78 ?v_108) ?v_131)) (or (or ?v_94 ?v_82) P9)) (or (or ?v_41 ?v_10) ?v_119)) (or (or ?v_98 ?v_99) ?v_82)) (or (or ?v_81 P12) ?v_2)) (or (or ?v_134 ?v_145) P17)) (or (or ?v_109 ?v_126) ?v_90)) (or (or ?v_107 ?v_23) ?v_96)) (or (or ?v_26 ?v_45) ?v_73)) (or (or ?v_20 ?v_76) ?v_62)) (or (or P22 ?v_116) ?v_141)) (or (or ?v_113 P2) ?v_132)) (or (or ?v_142 ?v_151) ?v_75)) (or (or ?v_112 P6) ?v_46)) (or (or ?v_107 P7) ?v_114)) (or (or ?v_66 ?v_38) ?v_86)) (or (or ?v_68 P18) ?v_58)) (or (or ?v_138 P8) ?v_98)) (or (or ?v_98 ?v_24) ?v_83)) (or (or ?v_82 ?v_54) ?v_85)) (or (or ?v_43 ?v_14) ?v_89)) (or (or ?v_139 ?v_11) ?v_111)) (or (or ?v_91 ?v_48) P17)) (or (or ?v_24 ?v_84) ?v_109)) (or (or P25 ?v_33) P12)) (or (or ?v_54 ?v_90) ?v_21)) (or (or ?v_143 ?v_83) P12)) (or (or ?v_95 ?v_123) ?v_128)) (or (or ?v_38 ?v_49) ?v_22)) (or (or ?v_155 ?v_118) ?v_9)) (or (or ?v_105 ?v_22) ?v_112)) (or (or ?v_115 ?v_143) P12)) (or (or ?v_150 ?v_80) ?v_35)) (or (or ?v_36 ?v_38) ?v_152)) (or (or ?v_74 ?v_139) ?v_151)) (or (or ?v_64 ?v_116) P0)) (or (or ?v_18 ?v_134) ?v_132)) (or (or P27 ?v_152) ?v_1)) (or (or ?v_156 ?v_69) P19)) (or (or ?v_104 ?v_94) ?v_36)) (or (or ?v_72 P12) ?v_63)) (or (or ?v_36 ?v_21) ?v_26)) (or (or P29 ?v_117) P7)) (or (or ?v_85 ?v_12) ?v_133)) (or (or ?v_122 ?v_47) ?v_44)) (or (or ?v_25 ?v_79) ?v_93)) (or (or P6 ?v_44) P23)) (or (or ?v_35 ?v_108) P7)) (or (or ?v_35 ?v_148) P10)) (or (or ?v_109 ?v_92) ?v_153)) (or (or ?v_56 ?v_32) ?v_50)) (or (or P11 ?v_109) ?v_132)) (or (or ?v_125 ?v_66) P26)) (or (or ?v_132 ?v_62) P6)) (or (or ?v_47 ?v_51) ?v_76)) (or (or ?v_33 ?v_84) ?v_22)) (or (or P5 ?v_79) ?v_80)) (or (or ?v_75 ?v_100) ?v_112)) (or (or P11 P22) ?v_157)) (or (or ?v_15 ?v_2) ?v_146)) (or (or ?v_62 ?v_143) ?v_89)) (or (or ?v_10 ?v_37) ?v_142)) (or (or ?v_140 ?v_22) ?v_34)) (or (or P25 ?v_28) ?v_114)) (or (or ?v_33 ?v_136) ?v_139)) (or (or ?v_102 ?v_95) P4)) (or (or ?v_9 ?v_43) P6)) (or (or ?v_12 P27) ?v_125)) (or (or ?v_14 ?v_30) ?v_99)) (or (or ?v_37 ?v_148) ?v_15)) (or (or ?v_39 ?v_96) ?v_34)) (or (or ?v_53 ?v_23) ?v_125)) (or (or ?v_60 ?v_14) ?v_81)) (or (or ?v_95 ?v_124) P3)) (or (or ?v_63 ?v_71) P15)) (or (or ?v_42 ?v_133) ?v_44)) (or (or ?v_150 ?v_5) ?v_47)) (or (or ?v_5 ?v_118) ?v_60)) (or (or ?v_90 ?v_81) ?v_155)) (or (or ?v_10 ?v_24) ?v_81)) (or (or ?v_92 ?v_70) ?v_143)) (or (or P14 ?v_51) ?v_8)) (or (or ?v_114 ?v_68) ?v_116)) (or (or ?v_124 ?v_75) ?v_151)) (or (or ?v_100 P27) ?v_73)) (or (or ?v_15 ?v_81) ?v_76)) (or (or ?v_37 ?v_84) ?v_100)) (or (or ?v_46 ?v_39) ?v_86)) (or (or ?v_92 ?v_140) ?v_66)) (or (or ?v_22 ?v_148) ?v_24)) (or (or ?v_29 P4) ?v_123)) (or ?v_158 ?v_90)) (or (or ?v_89 P26) ?v_145)) (or (or ?v_47 ?v_24) ?v_11)) (or (or ?v_114 ?v_53) ?v_39)) (or (or ?v_140 P23) ?v_120)) (or (or ?v_136 ?v_125) ?v_3)) (or (or P19 P10) ?v_114)) (or (or ?v_55 P21) ?v_39)) (or (or ?v_60 ?v_50) ?v_57)) (or (or P2 ?v_153) ?v_140)) (or (or ?v_86 ?v_55) ?v_65)) (or (or P10 ?v_102) ?v_157)) (or (or ?v_48 ?v_138) ?v_38)) (or (or ?v_130 ?v_100) ?v_84)) (or (or ?v_22 ?v_75) ?v_149)) (or (or ?v_99 ?v_6) ?v_47)) (or (or ?v_5 ?v_121) ?v_63)) (or (or ?v_107 ?v_69) ?v_144)) (or (or P4 ?v_135) ?v_41)) (or (or ?v_119 ?v_31) ?v_41)) (or (or ?v_130 P24) ?v_53)) (or (or ?v_153 ?v_153) ?v_113)) (or (or ?v_74 ?v_67) ?v_2)) (or (or ?v_122 ?v_147) ?v_128)) (or (or ?v_47 P2) ?v_13)) (or (or ?v_104 ?v_71) P9)) (or (or ?v_149 ?v_129) ?v_88)) (or (or ?v_42 ?v_37) ?v_139)) (or (or ?v_155 ?v_11) ?v_89)) (or (or ?v_94 ?v_57) ?v_97)) (or (or ?v_12 ?v_117) ?v_43)) (or (or ?v_114 ?v_108) ?v_61)) (or (or ?v_57 ?v_146) ?v_28)) (or (or ?v_84 ?v_82) ?v_118)) (or (or ?v_123 ?v_13) ?v_132)) (or (or ?v_45 ?v_153) ?v_1)) (or (or ?v_137 P19) ?v_60)) (or (or ?v_155 ?v_10) ?v_138)) (or (or ?v_144 ?v_87) ?v_137)) (or (or P16 ?v_42) ?v_22)) (or (or ?v_67 ?v_2) ?v_127)) (or (or ?v_116 ?v_33) P16)) (or (or ?v_125 ?v_38) ?v_127)) (or (or ?v_33 P20) ?v_127)) (or (or ?v_148 ?v_37) P16)) (or (or ?v_141 ?v_103) P27)) (or (or ?v_55 ?v_14) ?v_60)) (or (or ?v_131 ?v_139) ?v_6)) (or (or ?v_111 ?v_23) ?v_67)) (or (or ?v_132 ?v_33) ?v_112)) (or ?v_158 ?v_62)) (or (or ?v_72 ?v_104) ?v_55)))))))))))))))))))))))))))))
(check-sat)
(exit)
